Route #1: 12 45 52 22 54 55 56 15 58
Route #2: 3 57 30 61 62 9
Route #3: 63 48 25 21 28 13
Route #4: 5 60 64 40 44 53
Route #5: 39 42 34 6 36 4 46
Route #6: 14 50 11 35 49 1
Route #7: 19 20 7 29 24 59
Route #8: 65 37 23 8 32 51
Route #9: 17 38 10 27 43 16 41 66
Route #10: 31 18 26 2 47 33
Cost 1110